
Gurobi 8.1.0 (mac64, Python) logging started Sat Mar 23 11:21:02 2019

Academic license - for non-commercial use only

Gurobi 8.1.0 (mac64, Python) logging started Mon Mar 25 16:59:15 2019

Academic license - for non-commercial use only
